
Gurobi 9.1.2 (win64) logging started Tue Dec  7 12:20:33 2021

Gurobi Optimizer version 9.1.2 build v9.1.2rc0 (win64)
Thread count: 8 physical cores, 8 logical processors, using up to 8 threads
Optimize a model with 1 rows, 16 columns and 15 nonzeros
Model fingerprint: 0xf423ecce
Variable types: 1 continuous, 15 integer (15 binary)
Coefficient statistics:
  Matrix range     [1e+00, 1e+01]
  Objective range  [1e+00, 1e+00]
  Bounds range     [4e+00, 4e+00]
  RHS range        [1e+01, 1e+01]
Presolve time: 0.00s
Presolved: 1 rows, 16 columns, 15 nonzeros
Variable types: 1 continuous, 15 integer (15 binary)

Root simplex log...

Iteration    Objective       Primal Inf.    Dual Inf.      Time
       0   -3.7698722e+00   1.429983e-01   0.000000e+00     14s
       1   -3.7698722e+00   0.000000e+00   0.000000e+00     14s

Root relaxation: objective -3.769872e+00, 1 iterations, 0.00 seconds

    Nodes    |    Current Node    |     Objective Bounds      |     Work
 Expl Unexpl |  Obj  Depth IntInf | Incumbent    BestBd   Gap | It/Node Time

*    0     0               0      -3.7698722   -3.76987  0.00%     -   14s

Cutting planes:
  Lazy constraints: 2

Explored 0 nodes (2 simplex iterations) in 14.33 seconds
Thread count was 8 (of 8 available processors)

Solution count 1: -3.76987 
No other solutions better than -3.76987

Optimal solution found (tolerance 1.00e-04)
Best objective -3.769872206770e+00, best bound -3.769872206770e+00, gap 0.0000%

User-callback calls 81, time in user-callback 18.02 sec
